c WARNING: for repeatability, setting FPU to use double precision
d VARIABLES            123146       
d CONSTRAINTS          546672       
c ============================[ Problem Statistics ]=============================
c |                                                                             |
c |  Number of variables:        123146                                         |
c |  Number of clauses:          546672                                         |
c |  Parse time:                   0.08 s                                       |
c |                                                                             |
c ============================[ Search Statistics ]==============================
c | Conflicts |          ORIGINAL         |          LEARNT          | Progress |
c |           |    Vars  Clauses Literals |    Limit  Clauses Lit/Cl |          |
c ===============================================================================
c |       100 |  104253   492792  1194048 |   180690       99     17 | 15.342 % |
c |       250 |  104253   492792  1194048 |   198759      249     47 | 15.342 % |
c |       475 |  104253   492747  1193940 |   218635      474     58 | 15.342 % |
c |       812 |  104253   492747  1193940 |   240498      811     71 | 15.342 % |
c |      1318 |  104253   492747  1193940 |   264548     1317     86 | 15.342 % |
c |      2077 |  104253   492747  1193940 |   291003     2076     94 | 15.342 % |
c |      3216 |  104253   492747  1193940 |   320104     3215    101 | 15.342 % |
c |      4924 |  104253   492747  1193940 |   352114     4923     95 | 15.342 % |
c |      7486 |  104253   492747  1193940 |   387325     7485    106 | 15.342 % |
c |     11330 |  104253   492747  1193940 |   426058    11329    111 | 15.342 % |
c |     17096 |  104253   492747  1193940 |   468664    17095    131 | 15.342 % |
c |     25745 |  104253   492747  1193940 |   515530    25744    140 | 15.342 % |
c |     38719 |  104253   492747  1193940 |   567083    38718    134 | 15.342 % |
c |     58180 |  104253   492747  1193940 |   623792    58179    121 | 15.342 % |
c |     87372 |  104253   492747  1193940 |   686171    87371    127 | 15.342 % |
c |    131161 |  104253   492747  1193940 |   754788   131160    139 | 15.342 % |
c |    196845 |  104253   492747  1193940 |   830267   196844    141 | 15.342 % |
c |    295371 |  104253   492747  1193940 |   913294   295370    138 | 15.342 % |
c |    443160 |  104253   492747  1193940 |  1004623   443159    140 | 15.342 % |
c |    664843 |  104253   492747  1193940 |  1105086   664842    146 | 15.342 % |
c |    997368 |  104253   492747  1193940 |  1215594   997367    151 | 15.342 % |
c |   1496156 |  104247   492718  1193870 |  1337154   288433    129 | 15.347 % |
c ===============================================================================
c restarts              : 4093
c conflicts             : 2141137        (1193 /sec)
c decisions             : 5431560        (0.00 % random) (3027 /sec)
c propagations          : 3021689355     (1684102 /sec)
c conflict literals     : 320114793      (42.02 % deleted)
d RESTARTS             4093
d FAILURES             2141137      
d NODES                5431560      
d BACKTRACKS           5431560      
d PROPAGATIONS         3021689355   
d NOGOODSIZE           149.51 
d MEMORY               1038.00 
d TIME                 1794.24 

s UNKNOWN
